p wcnf 173 346 347 
1 -54 51 0 
1 100 -14 0 
1 -118 33 0 
1 -23 77 0 
1 -73 -56 0 
1 -162 81 0 
1 -111 -167 0 
1 -81 -44 0 
1 -13 112 0 
1 -110 -159 0 
1 42 -150 0 
1 152 -72 0 
1 -2 91 0 
1 95 101 0 
1 -173 -145 0 
1 -64 -25 0 
1 -161 -81 0 
1 -163 147 0 
1 150 132 0 
1 157 30 0 
1 -75 44 0 
1 -159 -48 0 
1 -12 96 0 
1 -143 -93 0 
1 71 -154 0 
1 39 65 0 
1 -146 111 0 
1 120 -24 0 
1 55 -123 0 
1 -48 -76 0 
1 57 -109 0 
1 -81 -101 0 
1 114 -18 0 
1 54 -136 0 
1 165 2 0 
1 118 173 0 
1 152 -146 0 
1 -164 133 0 
1 -23 41 0 
1 120 -93 0 
1 -173 50 0 
1 159 62 0 
1 -41 -126 0 
1 -27 -10 0 
1 -85 -110 0 
1 -152 -97 0 
1 -53 166 0 
1 41 14 0 
1 -25 170 0 
1 94 -157 0 
1 138 -92 0 
1 99 104 0 
1 98 -17 0 
1 114 133 0 
1 143 172 0 
1 13 142 0 
1 120 111 0 
1 -72 24 0 
1 -109 -59 0 
1 -61 34 0 
1 -110 54 0 
1 142 23 0 
1 -34 -6 0 
1 97 -164 0 
1 -67 -55 0 
1 -38 131 0 
1 83 160 0 
1 -57 42 0 
1 8 10 0 
1 -165 39 0 
1 -101 -68 0 
1 75 121 0 
1 47 18 0 
1 163 -153 0 
1 -120 42 0 
1 102 86 0 
1 15 170 0 
1 -19 -75 0 
1 127 71 0 
1 -163 -94 0 
1 100 -112 0 
1 -161 -163 0 
1 -127 2 0 
1 81 -28 0 
1 -2 39 0 
1 -100 -129 0 
1 105 158 0 
1 173 22 0 
1 -63 128 0 
1 136 -77 0 
1 -13 90 0 
1 -173 -115 0 
1 87 -29 0 
1 66 52 0 
1 9 104 0 
1 -85 39 0 
1 -110 -35 0 
1 106 -34 0 
1 -113 -9 0 
1 -99 -48 0 
1 -147 172 0 
1 2 -75 0 
1 -35 34 0 
1 -45 -41 0 
1 -26 -92 0 
1 -11 -17 0 
1 133 -144 0 
1 -134 106 0 
1 -46 53 0 
1 -7 -126 0 
1 -136 -130 0 
1 41 160 0 
1 -19 74 0 
1 -41 -141 0 
1 -72 109 0 
1 -77 73 0 
1 32 85 0 
1 82 54 0 
1 -144 59 0 
1 -89 -79 0 
1 -25 -12 0 
1 23 108 0 
1 43 34 0 
1 -39 83 0 
1 -5 91 0 
1 133 -13 0 
1 -95 100 0 
1 -117 -12 0 
1 -83 -95 0 
1 -41 -169 0 
1 -70 -24 0 
1 -116 34 0 
1 24 -167 0 
1 172 -84 0 
1 -124 -34 0 
1 28 52 0 
1 -159 16 0 
1 -144 115 0 
1 63 -166 0 
1 144 -27 0 
1 169 105 0 
1 81 -12 0 
1 116 -74 0 
1 6 -43 0 
1 -133 -104 0 
1 -47 82 0 
1 101 -71 0 
1 -74 84 0 
1 -88 25 0 
1 -116 -38 0 
1 -1 119 0 
1 26 109 0 
1 146 -173 0 
1 97 -40 0 
1 -168 81 0 
1 171 117 0 
1 -103 13 0 
1 45 67 0 
1 115 12 0 
1 39 -42 0 
1 127 -9 0 
1 -20 131 0 
1 -116 67 0 
1 62 -42 0 
1 27 -82 0 
1 -58 141 0 
1 80 58 0 
1 137 -148 0 
1 -102 21 0 
1 -109 148 0 
1 -38 -123 0 
1 -129 24 0 
1 69 74 0 
1 24 155 0 
1 67 109 0 
1 157 -6 0 
1 -150 141 0 
1 106 -158 0 
1 -127 -42 0 
1 89 -90 0 
1 -118 -23 0 
1 -67 76 0 
1 -47 -108 0 
1 142 -105 0 
1 75 -117 0 
1 -67 -32 0 
1 15 -12 0 
1 157 147 0 
1 80 -64 0 
1 78 85 0 
1 128 -75 0 
1 105 -102 0 
1 126 81 0 
1 -130 -87 0 
1 73 52 0 
1 145 -42 0 
1 85 53 0 
1 -106 86 0 
1 -122 132 0 
1 66 -22 0 
1 -124 166 0 
1 -70 -113 0 
1 54 -130 0 
1 139 167 0 
1 54 -92 0 
1 -40 44 0 
1 -117 157 0 
1 115 -53 0 
1 130 78 0 
1 -103 100 0 
1 -96 -100 0 
1 54 14 0 
1 -135 12 0 
1 -133 110 0 
1 -122 19 0 
1 5 -91 0 
1 101 -12 0 
1 139 97 0 
1 -36 -162 0 
1 -164 -144 0 
1 -53 11 0 
1 117 134 0 
1 65 -92 0 
1 -135 -53 0 
1 -51 -82 0 
1 40 23 0 
1 49 -76 0 
1 -155 -45 0 
1 -72 89 0 
1 64 60 0 
1 47 156 0 
1 -79 42 0 
1 125 -143 0 
1 -59 -50 0 
1 104 142 0 
1 -103 169 0 
1 121 99 0 
1 148 -151 0 
1 -130 92 0 
1 118 -122 0 
1 152 82 0 
1 -22 -84 0 
1 -9 94 0 
1 -81 14 0 
1 -77 17 0 
1 -9 75 0 
1 -87 170 0 
1 -143 85 0 
1 171 131 0 
1 -173 95 0 
1 -168 128 0 
1 -98 -42 0 
1 141 8 0 
1 1 -126 0 
1 145 7 0 
1 -72 73 0 
1 -69 -38 0 
1 86 27 0 
1 -71 35 0 
1 127 -85 0 
1 -125 -74 0 
1 -42 86 0 
1 -69 -153 0 
1 95 -44 0 
1 105 82 0 
1 6 -19 0 
1 47 -148 0 
1 -135 -45 0 
1 -145 3 0 
1 67 31 0 
1 96 -41 0 
1 173 -164 0 
1 -57 -102 0 
1 -167 -3 0 
1 29 6 0 
1 84 130 0 
1 106 -94 0 
1 -129 100 0 
1 151 -14 0 
1 -150 -76 0 
1 -55 70 0 
1 13 -34 0 
1 146 156 0 
1 -88 40 0 
1 43 -59 0 
1 -145 84 0 
1 -15 102 0 
1 -98 -81 0 
1 -141 9 0 
1 -105 -125 0 
1 139 -146 0 
1 -67 122 0 
1 24 169 0 
1 -12 -94 0 
1 -106 4 0 
1 -158 -21 0 
1 -115 93 0 
1 91 -2 0 
1 -21 113 0 
1 134 111 0 
1 -77 129 0 
1 102 149 0 
1 -60 -116 0 
1 -41 -67 0 
1 -138 -48 0 
1 -51 99 0 
1 -124 162 0 
1 94 -69 0 
1 -97 -57 0 
1 169 111 0 
1 -157 135 0 
1 -149 -85 0 
1 -75 82 0 
1 -24 46 0 
1 -100 79 0 
1 -54 9 0 
1 168 -119 0 
1 -58 94 0 
1 164 -111 0 
1 33 -70 0 
1 -15 46 0 
1 68 -73 0 
1 -12 33 0 
1 130 -108 0 
1 -81 36 0 
1 -137 161 0 
1 130 -90 0 
1 -87 162 0 
1 -122 52 0 
1 -82 -58 0 
1 53 130 0 
1 -112 -48 0 
1 108 69 0 
1 4 85 0 
1 173 -109 0 
1 -51 64 0 
1 -124 -146 0 
1 -134 54 0 
1 -83 -167 0 
1 7 165 0 
1 163 -155 0 
1 36 29 0 
1 145 -127 0 
1 152 -88 0 
1 -108 -114 0 
1 -125 91 0 
